Instance name:    bar-n100-1
Authors:          PDPTW Solver
Date:             2025-11-20
Reference:        LNS with SA/RTR
Solution
Route 1 : 49 27 26 76 77 48 98 41 8 91 99 38 28 78 88 58
Route 2 : 35 20 21 71 15 70 65 43 85 1 51 12 18 68 62 93 37 87
Route 3 : 40 17 67 2 52 30 33 80 24 74 45 83 95 90 50 36 100 86
Route 4 : 39 42 92 44 89 13 63 9 59 19 69 94
Route 5 : 47 97 16 66 5 55 32 82 7 57 34 10 60 84 6 56 3 53
Route 6 : 31 14 64 81 29 79 11 22 4 72 61 25 46 96 54 75 23 73
